(set-logic HORN)
(set-info :source |
    Benchmark: C_VC
    Output by Princess (http://www.philipp.ruemmer.org/princess.shtml)
|)
(set-info :status sat)
(declare-heap Heap Addr HeapObject
 defObj
 ((HeapObject 0)) (
  (
   (O_Int (getInt Int))
   (O_UInt (getUInt Int))
   (O_Addr (getAddr Addr))
   (defObj)
  )
))
(declare-fun inv_main2 (Heap Int Int) Bool)
(declare-fun inv_main29 (Heap Int Int Int Int AddrRange Int Int) Bool)
(declare-fun inv_main40 (Heap Int Int Int Int AddrRange Int Int) Bool)
(declare-fun inv_main41 (Heap Int Int Int Int AddrRange Int Int) Bool)
(declare-fun inv_main49 (Heap Int Int Int Int AddrRange Int Int) Bool)
(declare-fun inv_main50 (Heap Int Int Int Int AddrRange Int Int) Bool)
(declare-fun inv_main58 (Heap Int Int Int Int AddrRange Int Int) Bool)
(declare-fun inv_main59 (Heap Int Int Int Int AddrRange Int Int) Bool)
(declare-fun inv_main67 (Heap Int Int Int Int AddrRange Int Int) Bool)
(declare-fun inv_main68 (Heap Int Int Int Int AddrRange Int Int) Bool)
(declare-fun inv_main75 (Heap Int Int Int Int AddrRange Int Int) Bool)
(declare-fun inv_main76 (Heap Int Int Int Int AddrRange Int Int) Bool)
(declare-fun inv_main78 (Heap Int Int Int Int AddrRange Int Int) Bool)
(assert (forall ((var0 Int) (var1 Int) (var2 Heap)) (or (not (and (and (= var2 emptyHeap) (= var1 0)) (= var0 100000))) (inv_main2 var2 var1 var0))))
(assert (forall ((var0 Int) (var1 Int) (var2 Int) (var3 AddrRange) (var4 Int) (var5 Int) (var6 Int) (var7 Int) (var8 Heap) (var9 Int)) (or (not (and (inv_main29 var8 var7 var6 var5 var4 var3 var2 var1) (and (= var0 var2) (and (and (and (and (<= 0 (+ (+ 5 (* (- 1) (+ var7 (* (- 5) var9)))) (- 1))) (<= 0 (+ (+ 5 (* 1 (+ var7 (* (- 5) var9)))) (- 1)))) (or (not (<= 0 (+ (+ var7 (* (- 5) var9)) (- 1)))) (<= 0 (+ var7 (- 1))))) (or (not (<= 0 (+ (* (- 1) (+ var7 (* (- 5) var9))) (- 1)))) (<= 0 (+ (* (- 1) var7) (- 1))))) (<= 0 (+ var9 (* (- 1) var5))))))) (inv_main41 var8 var7 var6 var5 var0 var3 var2 var1))))
(assert (forall ((var0 Int) (var1 AddrRange) (var2 Int) (var3 Int) (var4 Int) (var5 Int) (var6 Heap) (var7 Int) (var8 Int) (var9 Int) (var10 Int) (var11 AddrRange) (var12 Int) (var13 Int) (var14 Int) (var15 Int) (var16 Heap)) (or (not (and (inv_main49 var16 var15 var14 var13 var12 var11 var10 var9) (and (and (not (= var8 var7)) (and (is-O_Int (read var16 (nthAddrRange var11 (+ (* 5 var13) (- 4))))) (is-O_Int (read var16 (nthAddrRange var11 (+ (* 5 var13) (- 4))))))) (and (and (and (and (and (and (and (= var6 (write var16 (nthAddrRange var11 (+ (* 5 var13) (- 4))) (O_Int var12))) (= var5 var15)) (= var4 var14)) (= var3 var13)) (= var2 var12)) (= var1 var11)) (= var7 var10)) (= var0 var9))))) (inv_main58 var6 var5 var4 var3 var8 var1 var7 var0))))
(assert (forall ((var0 Int) (var1 AddrRange) (var2 Int) (var3 Int) (var4 Int) (var5 Int) (var6 Heap) (var7 Int) (var8 Int) (var9 Int) (var10 Int) (var11 AddrRange) (var12 Int) (var13 Int) (var14 Int) (var15 Int) (var16 Heap)) (or (not (and (inv_main50 var16 var15 var14 var13 var12 var11 var10 var9) (and (and (not (= var8 var7)) (and (is-O_Int (read var16 (nthAddrRange var11 (+ (* 5 var13) (- 4))))) (is-O_Int (read var16 (nthAddrRange var11 (+ (* 5 var13) (- 4))))))) (and (and (and (and (and (and (and (= var6 (write var16 (nthAddrRange var11 (+ (* 5 var13) (- 4))) (O_Int var9))) (= var5 var15)) (= var4 var14)) (= var3 var13)) (= var2 var12)) (= var1 var11)) (= var7 var10)) (= var0 var9))))) (inv_main58 var6 var5 var4 var3 var8 var1 var7 var0))))
(assert (forall ((var0 Int) (var1 AddrRange) (var2 Int) (var3 Int) (var4 Int) (var5 Int) (var6 Heap) (var7 Int) (var8 Int) (var9 Int) (var10 Int) (var11 AddrRange) (var12 Int) (var13 Int) (var14 Int) (var15 Int) (var16 Heap)) (or (not (and (inv_main40 var16 var15 var14 var13 var12 var11 var10 var9) (and (and (not (= var8 var7)) (and (is-O_Int (read var16 (nthAddrRange var11 (+ (* 5 var13) (- 5))))) (is-O_Int (read var16 (nthAddrRange var11 (+ (* 5 var13) (- 5))))))) (and (and (and (and (and (and (and (= var6 (write var16 (nthAddrRange var11 (+ (* 5 var13) (- 5))) (O_Int var12))) (= var5 var15)) (= var4 var14)) (= var3 var13)) (= var2 var12)) (= var1 var11)) (= var7 var10)) (= var0 var9))))) (inv_main49 var6 var5 var4 var3 var8 var1 var7 var0))))
(assert (forall ((var0 Int) (var1 AddrRange) (var2 Int) (var3 Int) (var4 Int) (var5 Int) (var6 Heap) (var7 Int) (var8 Int) (var9 Int) (var10 Int) (var11 AddrRange) (var12 Int) (var13 Int) (var14 Int) (var15 Int) (var16 Heap)) (or (not (and (inv_main41 var16 var15 var14 var13 var12 var11 var10 var9) (and (and (not (= var8 var7)) (and (is-O_Int (read var16 (nthAddrRange var11 (+ (* 5 var13) (- 5))))) (is-O_Int (read var16 (nthAddrRange var11 (+ (* 5 var13) (- 5))))))) (and (and (and (and (and (and (and (= var6 (write var16 (nthAddrRange var11 (+ (* 5 var13) (- 5))) (O_Int var9))) (= var5 var15)) (= var4 var14)) (= var3 var13)) (= var2 var12)) (= var1 var11)) (= var7 var10)) (= var0 var9))))) (inv_main49 var6 var5 var4 var3 var8 var1 var7 var0))))
(assert (forall ((var0 Int) (var1 AddrRange) (var2 Int) (var3 Int) (var4 Int) (var5 Int) (var6 Heap) (var7 Int) (var8 Int) (var9 Int) (var10 Int) (var11 AddrRange) (var12 Int) (var13 Int) (var14 Int) (var15 Int) (var16 Heap)) (or (not (and (inv_main58 var16 var15 var14 var13 var12 var11 var10 var9) (and (and (= var8 var7) (and (is-O_Int (read var16 (nthAddrRange var11 (+ (* 5 var13) (- 3))))) (is-O_Int (read var16 (nthAddrRange var11 (+ (* 5 var13) (- 3))))))) (and (and (and (and (and (and (and (= var6 (write var16 (nthAddrRange var11 (+ (* 5 var13) (- 3))) (O_Int var12))) (= var5 var15)) (= var4 var14)) (= var3 var13)) (= var2 var12)) (= var1 var11)) (= var7 var10)) (= var0 var9))))) (inv_main68 var6 var5 var4 var3 var8 var1 var7 var0))))
(assert (forall ((var0 Int) (var1 AddrRange) (var2 Int) (var3 Int) (var4 Int) (var5 Int) (var6 Heap) (var7 Int) (var8 Int) (var9 Int) (var10 Int) (var11 AddrRange) (var12 Int) (var13 Int) (var14 Int) (var15 Int) (var16 Heap)) (or (not (and (inv_main59 var16 var15 var14 var13 var12 var11 var10 var9) (and (and (= var8 var7) (and (is-O_Int (read var16 (nthAddrRange var11 (+ (* 5 var13) (- 3))))) (is-O_Int (read var16 (nthAddrRange var11 (+ (* 5 var13) (- 3))))))) (and (and (and (and (and (and (and (= var6 (write var16 (nthAddrRange var11 (+ (* 5 var13) (- 3))) (O_Int var9))) (= var5 var15)) (= var4 var14)) (= var3 var13)) (= var2 var12)) (= var1 var11)) (= var7 var10)) (= var0 var9))))) (inv_main68 var6 var5 var4 var3 var8 var1 var7 var0))))
(assert (forall ((var0 Int) (var1 AddrRange) (var2 Int) (var3 Int) (var4 Int) (var5 Int) (var6 Heap) (var7 Int) (var8 Int) (var9 Int) (var10 Int) (var11 AddrRange) (var12 Int) (var13 Int) (var14 Int) (var15 Int) (var16 Heap)) (or (not (and (inv_main49 var16 var15 var14 var13 var12 var11 var10 var9) (and (and (= var8 var7) (and (is-O_Int (read var16 (nthAddrRange var11 (+ (* 5 var13) (- 4))))) (is-O_Int (read var16 (nthAddrRange var11 (+ (* 5 var13) (- 4))))))) (and (and (and (and (and (and (and (= var6 (write var16 (nthAddrRange var11 (+ (* 5 var13) (- 4))) (O_Int var12))) (= var5 var15)) (= var4 var14)) (= var3 var13)) (= var2 var12)) (= var1 var11)) (= var7 var10)) (= var0 var9))))) (inv_main59 var6 var5 var4 var3 var8 var1 var7 var0))))
(assert (forall ((var0 Int) (var1 AddrRange) (var2 Int) (var3 Int) (var4 Int) (var5 Int) (var6 Heap) (var7 Int) (var8 Int) (var9 Int) (var10 Int) (var11 AddrRange) (var12 Int) (var13 Int) (var14 Int) (var15 Int) (var16 Heap)) (or (not (and (inv_main50 var16 var15 var14 var13 var12 var11 var10 var9) (and (and (= var8 var7) (and (is-O_Int (read var16 (nthAddrRange var11 (+ (* 5 var13) (- 4))))) (is-O_Int (read var16 (nthAddrRange var11 (+ (* 5 var13) (- 4))))))) (and (and (and (and (and (and (and (= var6 (write var16 (nthAddrRange var11 (+ (* 5 var13) (- 4))) (O_Int var9))) (= var5 var15)) (= var4 var14)) (= var3 var13)) (= var2 var12)) (= var1 var11)) (= var7 var10)) (= var0 var9))))) (inv_main59 var6 var5 var4 var3 var8 var1 var7 var0))))
(assert (forall ((var0 Int) (var1 AddrRange) (var2 Int) (var3 Int) (var4 Int) (var5 Int) (var6 Heap) (var7 Int) (var8 Int) (var9 Int) (var10 Int) (var11 AddrRange) (var12 Int) (var13 Int) (var14 Int) (var15 Int) (var16 Heap)) (or (not (and (inv_main67 var16 var15 var14 var13 var12 var11 var10 var9) (and (and (= var8 var7) (and (is-O_Int (read var16 (nthAddrRange var11 (+ (* 5 var13) (- 2))))) (is-O_Int (read var16 (nthAddrRange var11 (+ (* 5 var13) (- 2))))))) (and (and (and (and (and (and (and (= var6 (write var16 (nthAddrRange var11 (+ (* 5 var13) (- 2))) (O_Int var12))) (= var5 var15)) (= var4 var14)) (= var3 var13)) (= var2 var12)) (= var1 var11)) (= var7 var10)) (= var0 var9))))) (inv_main76 var6 var5 var4 var3 var8 var1 var7 var0))))
(assert (forall ((var0 Int) (var1 AddrRange) (var2 Int) (var3 Int) (var4 Int) (var5 Int) (var6 Heap) (var7 Int) (var8 Int) (var9 Int) (var10 Int) (var11 AddrRange) (var12 Int) (var13 Int) (var14 Int) (var15 Int) (var16 Heap)) (or (not (and (inv_main68 var16 var15 var14 var13 var12 var11 var10 var9) (and (and (= var8 var7) (and (is-O_Int (read var16 (nthAddrRange var11 (+ (* 5 var13) (- 2))))) (is-O_Int (read var16 (nthAddrRange var11 (+ (* 5 var13) (- 2))))))) (and (and (and (and (and (and (and (= var6 (write var16 (nthAddrRange var11 (+ (* 5 var13) (- 2))) (O_Int var9))) (= var5 var15)) (= var4 var14)) (= var3 var13)) (= var2 var12)) (= var1 var11)) (= var7 var10)) (= var0 var9))))) (inv_main76 var6 var5 var4 var3 var8 var1 var7 var0))))
(assert (forall ((var0 Int) (var1 Int) (var2 Int) (var3 AddrRange) (var4 Int) (var5 Int) (var6 Int) (var7 Int) (var8 Heap) (var9 Int)) (or (not (and (inv_main29 var8 var7 var6 var5 var4 var3 var2 var1) (and (not (= var0 var2)) (and (and (and (and (<= 0 (+ (+ 5 (* (- 1) (+ var7 (* (- 5) var9)))) (- 1))) (<= 0 (+ (+ 5 (* 1 (+ var7 (* (- 5) var9)))) (- 1)))) (or (not (<= 0 (+ (+ var7 (* (- 5) var9)) (- 1)))) (<= 0 (+ var7 (- 1))))) (or (not (<= 0 (+ (* (- 1) (+ var7 (* (- 5) var9))) (- 1)))) (<= 0 (+ (* (- 1) var7) (- 1))))) (<= 0 (+ var9 (* (- 1) var5))))))) (inv_main40 var8 var7 var6 var5 var0 var3 var2 var1))))
(assert (forall ((var0 Int) (var1 Int) (var2 Int) (var3 AddrRange) (var4 Int) (var5 Int) (var6 Int) (var7 Int) (var8 Heap) (var9 Int)) (or (not (and (inv_main29 var8 var7 var6 var5 var4 var3 var2 var1) (and (and (<= 0 (+ var7 (- 1))) (not (or (not (and (and (and (<= 0 (+ (+ 5 (* (- 1) (+ var7 (* (- 5) var9)))) (- 1))) (<= 0 (+ (+ 5 (* 1 (+ var7 (* (- 5) var9)))) (- 1)))) (or (not (<= 0 (+ (+ var7 (* (- 5) var9)) (- 1)))) (<= 0 (+ var7 (- 1))))) (or (not (<= 0 (+ (* (- 1) (+ var7 (* (- 5) var9))) (- 1)))) (<= 0 (+ (* (- 1) var7) (- 1)))))) (<= 0 (+ var9 (* (- 1) var5)))))) (= var0 0)))) (inv_main78 var8 var7 var6 var0 var4 var3 var2 var1))))
(assert (forall ((var0 Int) (var1 Int) (var2 Int) (var3 AddrRange) (var4 Int) (var5 Int) (var6 Int) (var7 Int) (var8 Heap)) (or (not (and (inv_main78 var8 var7 var6 var5 var4 var3 var2 var1) (and (and (<= 0 (+ (+ var7 (* (- 1) (+ var5 1))) (- 1))) (is-O_Int (read var8 (nthAddrRange var3 var5)))) (= var0 (+ var5 1))))) (inv_main78 var8 var7 var6 var0 var4 var3 var2 var1))))
(assert (forall ((var0 Int) (var1 Int) (var2 Int) (var3 AddrRange) (var4 Int) (var5 Int) (var6 Int) (var7 Int) (var8 Heap) (var9 Int) (var10 Int) (var11 AddrRange) (var12 Int) (var13 Int) (var14 Int) (var15 Int) (var16 Heap)) (or (not (and (inv_main75 var16 var15 var14 var13 var12 var11 var10 var9) (and (and (and (is-O_Int (read var16 (nthAddrRange var11 (+ (* 5 var13) (- 1))))) (is-O_Int (read var16 (nthAddrRange var11 (+ (* 5 var13) (- 1)))))) (and (and (and (and (and (and (and (= var8 (write var16 (nthAddrRange var11 (+ (* 5 var13) (- 1))) (O_Int var12))) (= var7 var15)) (= var6 var14)) (= var5 var13)) (= var4 var12)) (= var3 var11)) (= var2 var10)) (= var1 var9))) (= var0 (+ var5 1))))) (inv_main29 var8 var7 var6 var0 var4 var3 var2 var1))))
(assert (forall ((var0 Int) (var1 Int) (var2 Int) (var3 AddrRange) (var4 Int) (var5 Int) (var6 Int) (var7 Int) (var8 Heap) (var9 Int) (var10 Int) (var11 AddrRange) (var12 Int) (var13 Int) (var14 Int) (var15 Int) (var16 Heap)) (or (not (and (inv_main76 var16 var15 var14 var13 var12 var11 var10 var9) (and (and (and (is-O_Int (read var16 (nthAddrRange var11 (+ (* 5 var13) (- 1))))) (is-O_Int (read var16 (nthAddrRange var11 (+ (* 5 var13) (- 1)))))) (and (and (and (and (and (and (and (= var8 (write var16 (nthAddrRange var11 (+ (* 5 var13) (- 1))) (O_Int var9))) (= var7 var15)) (= var6 var14)) (= var5 var13)) (= var4 var12)) (= var3 var11)) (= var2 var10)) (= var1 var9))) (= var0 (+ var5 1))))) (inv_main29 var8 var7 var6 var0 var4 var3 var2 var1))))
(assert (forall ((var0 Int) (var1 Int) (var2 Int) (var3 Int) (var4 Int) (var5 Int) (var6 Int) (var7 Int) (var8 Heap) (var9 Int) (var10 Int) (var11 AddrRange) (var12 AddrRange) (var13 Int) (var14 Int) (var15 Int) (var16 Int) (var17 Int) (var18 Int) (var19 Int) (var20 Int) (var21 Heap) (var22 Heap) (var23 Int) (var24 Int) (var25 Int) (var26 Heap) (var27 Int) (var28 Int) (var29 Int) (var30 Int) (var31 Int) (var32 Int)) (or (not (and (inv_main2 var26 var25 var24) (and (and (and (and (and (not (= var23 0)) (and (and (and (and (and (and (and (and (= var22 var21) (= var20 var19)) (= var18 var17)) (= var16 var15)) (= var14 var13)) (= var12 var11)) (= var10 0)) (= var9 10)) (or (and (and (and (and (and (and (<= 0 (+ (+ 5 (* (- 1) var27)) (- 1))) (<= 0 (+ (+ 5 (* 1 var27)) (- 1)))) (or (not (<= 0 (+ var27 (- 1)))) (<= 0 (+ var19 (- 1))))) (or (not (<= 0 (+ (* (- 1) var27) (- 1)))) (<= 0 (+ (* (- 1) var19) (- 1))))) (= var19 (+ (* 5 var28) var27))) (= var27 0)) (= var23 1)) (and (not (or (not (and (and (and (and (<= 0 (+ (+ 5 (* (- 1) var29)) (- 1))) (<= 0 (+ (+ 5 (* 1 var29)) (- 1)))) (or (not (<= 0 (+ var29 (- 1)))) (<= 0 (+ var19 (- 1))))) (or (not (<= 0 (+ (* (- 1) var29) (- 1)))) (<= 0 (+ (* (- 1) var19) (- 1))))) (= var19 (+ (* 5 var30) var29)))) (= var29 0))) (= var23 0))))) (and (and (and (and (and (<= 0 (+ (+ 5 (* (- 1) var31)) (- 1))) (<= 0 (+ (+ 5 (* 1 var31)) (- 1)))) (or (not (<= 0 (+ var31 (- 1)))) (<= 0 (+ var19 (- 1))))) (or (not (<= 0 (+ (* (- 1) var31) (- 1)))) (<= 0 (+ (* (- 1) var19) (- 1))))) (= var19 (+ (* 5 var32) var31))) (= var31 0))) (and (and (and (and (and (= var21 (newBatchHeap (batchAlloc var8 (O_Int var7) var6))) (= var19 var6)) (= var17 var5)) (= var15 var4)) (= var13 var3)) (= var11 (newAddrRange (batchAlloc var8 (O_Int var7) var6))))) (and (not (= var2 0)) (and (<= 0 (+ (+ var1 (- 1)) (- 1))) (and (and (and (= var8 var26) (= var6 var1)) (= var5 var24)) (or (and (<= 0 (+ (+ var24 (* (- 1) var1)) (- 1))) (= var2 1)) (and (not (<= 0 (+ (+ var24 (* (- 1) var1)) (- 1)))) (= var2 0))))))) (= var0 1)))) (inv_main29 var22 var20 var18 var0 var14 var12 var10 var9))))
(assert (forall ((var0 Int) (var1 AddrRange) (var2 Int) (var3 Int) (var4 Int) (var5 Int) (var6 Heap) (var7 Int) (var8 Int) (var9 Int) (var10 Int) (var11 AddrRange) (var12 Int) (var13 Int) (var14 Int) (var15 Int) (var16 Heap)) (or (not (and (inv_main40 var16 var15 var14 var13 var12 var11 var10 var9) (and (and (= var8 var7) (and (is-O_Int (read var16 (nthAddrRange var11 (+ (* 5 var13) (- 5))))) (is-O_Int (read var16 (nthAddrRange var11 (+ (* 5 var13) (- 5))))))) (and (and (and (and (and (and (and (= var6 (write var16 (nthAddrRange var11 (+ (* 5 var13) (- 5))) (O_Int var12))) (= var5 var15)) (= var4 var14)) (= var3 var13)) (= var2 var12)) (= var1 var11)) (= var7 var10)) (= var0 var9))))) (inv_main50 var6 var5 var4 var3 var8 var1 var7 var0))))
(assert (forall ((var0 Int) (var1 AddrRange) (var2 Int) (var3 Int) (var4 Int) (var5 Int) (var6 Heap) (var7 Int) (var8 Int) (var9 Int) (var10 Int) (var11 AddrRange) (var12 Int) (var13 Int) (var14 Int) (var15 Int) (var16 Heap)) (or (not (and (inv_main41 var16 var15 var14 var13 var12 var11 var10 var9) (and (and (= var8 var7) (and (is-O_Int (read var16 (nthAddrRange var11 (+ (* 5 var13) (- 5))))) (is-O_Int (read var16 (nthAddrRange var11 (+ (* 5 var13) (- 5))))))) (and (and (and (and (and (and (and (= var6 (write var16 (nthAddrRange var11 (+ (* 5 var13) (- 5))) (O_Int var9))) (= var5 var15)) (= var4 var14)) (= var3 var13)) (= var2 var12)) (= var1 var11)) (= var7 var10)) (= var0 var9))))) (inv_main50 var6 var5 var4 var3 var8 var1 var7 var0))))
(assert (forall ((var0 Int) (var1 AddrRange) (var2 Int) (var3 Int) (var4 Int) (var5 Int) (var6 Heap) (var7 Int) (var8 Int) (var9 Int) (var10 Int) (var11 AddrRange) (var12 Int) (var13 Int) (var14 Int) (var15 Int) (var16 Heap)) (or (not (and (inv_main58 var16 var15 var14 var13 var12 var11 var10 var9) (and (and (not (= var8 var7)) (and (is-O_Int (read var16 (nthAddrRange var11 (+ (* 5 var13) (- 3))))) (is-O_Int (read var16 (nthAddrRange var11 (+ (* 5 var13) (- 3))))))) (and (and (and (and (and (and (and (= var6 (write var16 (nthAddrRange var11 (+ (* 5 var13) (- 3))) (O_Int var12))) (= var5 var15)) (= var4 var14)) (= var3 var13)) (= var2 var12)) (= var1 var11)) (= var7 var10)) (= var0 var9))))) (inv_main67 var6 var5 var4 var3 var8 var1 var7 var0))))
(assert (forall ((var0 Int) (var1 AddrRange) (var2 Int) (var3 Int) (var4 Int) (var5 Int) (var6 Heap) (var7 Int) (var8 Int) (var9 Int) (var10 Int) (var11 AddrRange) (var12 Int) (var13 Int) (var14 Int) (var15 Int) (var16 Heap)) (or (not (and (inv_main59 var16 var15 var14 var13 var12 var11 var10 var9) (and (and (not (= var8 var7)) (and (is-O_Int (read var16 (nthAddrRange var11 (+ (* 5 var13) (- 3))))) (is-O_Int (read var16 (nthAddrRange var11 (+ (* 5 var13) (- 3))))))) (and (and (and (and (and (and (and (= var6 (write var16 (nthAddrRange var11 (+ (* 5 var13) (- 3))) (O_Int var9))) (= var5 var15)) (= var4 var14)) (= var3 var13)) (= var2 var12)) (= var1 var11)) (= var7 var10)) (= var0 var9))))) (inv_main67 var6 var5 var4 var3 var8 var1 var7 var0))))
(assert (forall ((var0 Int) (var1 AddrRange) (var2 Int) (var3 Int) (var4 Int) (var5 Int) (var6 Heap) (var7 Int) (var8 Int) (var9 Int) (var10 Int) (var11 AddrRange) (var12 Int) (var13 Int) (var14 Int) (var15 Int) (var16 Heap)) (or (not (and (inv_main67 var16 var15 var14 var13 var12 var11 var10 var9) (and (and (not (= var8 var7)) (and (is-O_Int (read var16 (nthAddrRange var11 (+ (* 5 var13) (- 2))))) (is-O_Int (read var16 (nthAddrRange var11 (+ (* 5 var13) (- 2))))))) (and (and (and (and (and (and (and (= var6 (write var16 (nthAddrRange var11 (+ (* 5 var13) (- 2))) (O_Int var12))) (= var5 var15)) (= var4 var14)) (= var3 var13)) (= var2 var12)) (= var1 var11)) (= var7 var10)) (= var0 var9))))) (inv_main75 var6 var5 var4 var3 var8 var1 var7 var0))))
(assert (forall ((var0 Int) (var1 AddrRange) (var2 Int) (var3 Int) (var4 Int) (var5 Int) (var6 Heap) (var7 Int) (var8 Int) (var9 Int) (var10 Int) (var11 AddrRange) (var12 Int) (var13 Int) (var14 Int) (var15 Int) (var16 Heap)) (or (not (and (inv_main68 var16 var15 var14 var13 var12 var11 var10 var9) (and (and (not (= var8 var7)) (and (is-O_Int (read var16 (nthAddrRange var11 (+ (* 5 var13) (- 2))))) (is-O_Int (read var16 (nthAddrRange var11 (+ (* 5 var13) (- 2))))))) (and (and (and (and (and (and (and (= var6 (write var16 (nthAddrRange var11 (+ (* 5 var13) (- 2))) (O_Int var9))) (= var5 var15)) (= var4 var14)) (= var3 var13)) (= var2 var12)) (= var1 var11)) (= var7 var10)) (= var0 var9))))) (inv_main75 var6 var5 var4 var3 var8 var1 var7 var0))))
(assert (forall ((var0 Int) (var1 Int) (var2 AddrRange) (var3 Int) (var4 Int) (var5 Int) (var6 Int) (var7 Heap)) (not (and (inv_main40 var7 var6 var5 var4 var3 var2 var1 var0) (not (is-O_Int (read var7 (nthAddrRange var2 (+ (* 5 var4) (- 5))))))))))
(assert (forall ((var0 Int) (var1 Int) (var2 AddrRange) (var3 Int) (var4 Int) (var5 Int) (var6 Int) (var7 Heap)) (not (and (inv_main40 var7 var6 var5 var4 var3 var2 var1 var0) (and (is-O_Int (read var7 (nthAddrRange var2 (+ (* 5 var4) (- 5))))) (not (within var2 (nthAddrRange var2 (+ (* 5 var4) (- 5))))))))))
(assert (forall ((var0 Int) (var1 Int) (var2 AddrRange) (var3 Int) (var4 Int) (var5 Int) (var6 Int) (var7 Heap)) (not (and (inv_main40 var7 var6 var5 var4 var3 var2 var1 var0) (and (is-O_Int (read var7 (nthAddrRange var2 (+ (* 5 var4) (- 5))))) (not (is-O_Int (read var7 (nthAddrRange var2 (+ (* 5 var4) (- 5)))))))))))
(assert (forall ((var0 Int) (var1 Int) (var2 AddrRange) (var3 Int) (var4 Int) (var5 Int) (var6 Int) (var7 Heap)) (not (and (inv_main41 var7 var6 var5 var4 var3 var2 var1 var0) (not (is-O_Int (read var7 (nthAddrRange var2 (+ (* 5 var4) (- 5))))))))))
(assert (forall ((var0 Int) (var1 Int) (var2 AddrRange) (var3 Int) (var4 Int) (var5 Int) (var6 Int) (var7 Heap)) (not (and (inv_main41 var7 var6 var5 var4 var3 var2 var1 var0) (and (is-O_Int (read var7 (nthAddrRange var2 (+ (* 5 var4) (- 5))))) (not (within var2 (nthAddrRange var2 (+ (* 5 var4) (- 5))))))))))
(assert (forall ((var0 Int) (var1 Int) (var2 AddrRange) (var3 Int) (var4 Int) (var5 Int) (var6 Int) (var7 Heap)) (not (and (inv_main41 var7 var6 var5 var4 var3 var2 var1 var0) (and (is-O_Int (read var7 (nthAddrRange var2 (+ (* 5 var4) (- 5))))) (not (is-O_Int (read var7 (nthAddrRange var2 (+ (* 5 var4) (- 5)))))))))))
(assert (forall ((var0 Int) (var1 Int) (var2 AddrRange) (var3 Int) (var4 Int) (var5 Int) (var6 Int) (var7 Heap)) (not (and (inv_main49 var7 var6 var5 var4 var3 var2 var1 var0) (not (is-O_Int (read var7 (nthAddrRange var2 (+ (* 5 var4) (- 4))))))))))
(assert (forall ((var0 Int) (var1 Int) (var2 AddrRange) (var3 Int) (var4 Int) (var5 Int) (var6 Int) (var7 Heap)) (not (and (inv_main49 var7 var6 var5 var4 var3 var2 var1 var0) (and (is-O_Int (read var7 (nthAddrRange var2 (+ (* 5 var4) (- 4))))) (not (within var2 (nthAddrRange var2 (+ (* 5 var4) (- 4))))))))))
(assert (forall ((var0 Int) (var1 Int) (var2 AddrRange) (var3 Int) (var4 Int) (var5 Int) (var6 Int) (var7 Heap)) (not (and (inv_main49 var7 var6 var5 var4 var3 var2 var1 var0) (and (is-O_Int (read var7 (nthAddrRange var2 (+ (* 5 var4) (- 4))))) (not (is-O_Int (read var7 (nthAddrRange var2 (+ (* 5 var4) (- 4)))))))))))
(assert (forall ((var0 Int) (var1 Int) (var2 AddrRange) (var3 Int) (var4 Int) (var5 Int) (var6 Int) (var7 Heap)) (not (and (inv_main50 var7 var6 var5 var4 var3 var2 var1 var0) (not (is-O_Int (read var7 (nthAddrRange var2 (+ (* 5 var4) (- 4))))))))))
(assert (forall ((var0 Int) (var1 Int) (var2 AddrRange) (var3 Int) (var4 Int) (var5 Int) (var6 Int) (var7 Heap)) (not (and (inv_main50 var7 var6 var5 var4 var3 var2 var1 var0) (and (is-O_Int (read var7 (nthAddrRange var2 (+ (* 5 var4) (- 4))))) (not (within var2 (nthAddrRange var2 (+ (* 5 var4) (- 4))))))))))
(assert (forall ((var0 Int) (var1 Int) (var2 AddrRange) (var3 Int) (var4 Int) (var5 Int) (var6 Int) (var7 Heap)) (not (and (inv_main50 var7 var6 var5 var4 var3 var2 var1 var0) (and (is-O_Int (read var7 (nthAddrRange var2 (+ (* 5 var4) (- 4))))) (not (is-O_Int (read var7 (nthAddrRange var2 (+ (* 5 var4) (- 4)))))))))))
(assert (forall ((var0 Int) (var1 Int) (var2 AddrRange) (var3 Int) (var4 Int) (var5 Int) (var6 Int) (var7 Heap)) (not (and (inv_main58 var7 var6 var5 var4 var3 var2 var1 var0) (not (is-O_Int (read var7 (nthAddrRange var2 (+ (* 5 var4) (- 3))))))))))
(assert (forall ((var0 Int) (var1 Int) (var2 AddrRange) (var3 Int) (var4 Int) (var5 Int) (var6 Int) (var7 Heap)) (not (and (inv_main58 var7 var6 var5 var4 var3 var2 var1 var0) (and (is-O_Int (read var7 (nthAddrRange var2 (+ (* 5 var4) (- 3))))) (not (within var2 (nthAddrRange var2 (+ (* 5 var4) (- 3))))))))))
(assert (forall ((var0 Int) (var1 Int) (var2 AddrRange) (var3 Int) (var4 Int) (var5 Int) (var6 Int) (var7 Heap)) (not (and (inv_main58 var7 var6 var5 var4 var3 var2 var1 var0) (and (is-O_Int (read var7 (nthAddrRange var2 (+ (* 5 var4) (- 3))))) (not (is-O_Int (read var7 (nthAddrRange var2 (+ (* 5 var4) (- 3)))))))))))
(assert (forall ((var0 Int) (var1 Int) (var2 AddrRange) (var3 Int) (var4 Int) (var5 Int) (var6 Int) (var7 Heap)) (not (and (inv_main59 var7 var6 var5 var4 var3 var2 var1 var0) (not (is-O_Int (read var7 (nthAddrRange var2 (+ (* 5 var4) (- 3))))))))))
(assert (forall ((var0 Int) (var1 Int) (var2 AddrRange) (var3 Int) (var4 Int) (var5 Int) (var6 Int) (var7 Heap)) (not (and (inv_main59 var7 var6 var5 var4 var3 var2 var1 var0) (and (is-O_Int (read var7 (nthAddrRange var2 (+ (* 5 var4) (- 3))))) (not (within var2 (nthAddrRange var2 (+ (* 5 var4) (- 3))))))))))
(assert (forall ((var0 Int) (var1 Int) (var2 AddrRange) (var3 Int) (var4 Int) (var5 Int) (var6 Int) (var7 Heap)) (not (and (inv_main59 var7 var6 var5 var4 var3 var2 var1 var0) (and (is-O_Int (read var7 (nthAddrRange var2 (+ (* 5 var4) (- 3))))) (not (is-O_Int (read var7 (nthAddrRange var2 (+ (* 5 var4) (- 3)))))))))))
(assert (forall ((var0 Int) (var1 Int) (var2 AddrRange) (var3 Int) (var4 Int) (var5 Int) (var6 Int) (var7 Heap)) (not (and (inv_main67 var7 var6 var5 var4 var3 var2 var1 var0) (not (is-O_Int (read var7 (nthAddrRange var2 (+ (* 5 var4) (- 2))))))))))
(assert (forall ((var0 Int) (var1 Int) (var2 AddrRange) (var3 Int) (var4 Int) (var5 Int) (var6 Int) (var7 Heap)) (not (and (inv_main67 var7 var6 var5 var4 var3 var2 var1 var0) (and (is-O_Int (read var7 (nthAddrRange var2 (+ (* 5 var4) (- 2))))) (not (within var2 (nthAddrRange var2 (+ (* 5 var4) (- 2))))))))))
(assert (forall ((var0 Int) (var1 Int) (var2 AddrRange) (var3 Int) (var4 Int) (var5 Int) (var6 Int) (var7 Heap)) (not (and (inv_main67 var7 var6 var5 var4 var3 var2 var1 var0) (and (is-O_Int (read var7 (nthAddrRange var2 (+ (* 5 var4) (- 2))))) (not (is-O_Int (read var7 (nthAddrRange var2 (+ (* 5 var4) (- 2)))))))))))
(assert (forall ((var0 Int) (var1 Int) (var2 AddrRange) (var3 Int) (var4 Int) (var5 Int) (var6 Int) (var7 Heap)) (not (and (inv_main68 var7 var6 var5 var4 var3 var2 var1 var0) (not (is-O_Int (read var7 (nthAddrRange var2 (+ (* 5 var4) (- 2))))))))))
(assert (forall ((var0 Int) (var1 Int) (var2 AddrRange) (var3 Int) (var4 Int) (var5 Int) (var6 Int) (var7 Heap)) (not (and (inv_main68 var7 var6 var5 var4 var3 var2 var1 var0) (and (is-O_Int (read var7 (nthAddrRange var2 (+ (* 5 var4) (- 2))))) (not (within var2 (nthAddrRange var2 (+ (* 5 var4) (- 2))))))))))
(assert (forall ((var0 Int) (var1 Int) (var2 AddrRange) (var3 Int) (var4 Int) (var5 Int) (var6 Int) (var7 Heap)) (not (and (inv_main68 var7 var6 var5 var4 var3 var2 var1 var0) (and (is-O_Int (read var7 (nthAddrRange var2 (+ (* 5 var4) (- 2))))) (not (is-O_Int (read var7 (nthAddrRange var2 (+ (* 5 var4) (- 2)))))))))))
(assert (forall ((var0 Int) (var1 Int) (var2 AddrRange) (var3 Int) (var4 Int) (var5 Int) (var6 Int) (var7 Heap)) (not (and (inv_main75 var7 var6 var5 var4 var3 var2 var1 var0) (not (is-O_Int (read var7 (nthAddrRange var2 (+ (* 5 var4) (- 1))))))))))
(assert (forall ((var0 Int) (var1 Int) (var2 AddrRange) (var3 Int) (var4 Int) (var5 Int) (var6 Int) (var7 Heap)) (not (and (inv_main75 var7 var6 var5 var4 var3 var2 var1 var0) (and (is-O_Int (read var7 (nthAddrRange var2 (+ (* 5 var4) (- 1))))) (not (within var2 (nthAddrRange var2 (+ (* 5 var4) (- 1))))))))))
(assert (forall ((var0 Int) (var1 Int) (var2 AddrRange) (var3 Int) (var4 Int) (var5 Int) (var6 Int) (var7 Heap)) (not (and (inv_main75 var7 var6 var5 var4 var3 var2 var1 var0) (and (is-O_Int (read var7 (nthAddrRange var2 (+ (* 5 var4) (- 1))))) (not (is-O_Int (read var7 (nthAddrRange var2 (+ (* 5 var4) (- 1)))))))))))
(assert (forall ((var0 Int) (var1 Int) (var2 AddrRange) (var3 Int) (var4 Int) (var5 Int) (var6 Int) (var7 Heap)) (not (and (inv_main76 var7 var6 var5 var4 var3 var2 var1 var0) (not (is-O_Int (read var7 (nthAddrRange var2 (+ (* 5 var4) (- 1))))))))))
(assert (forall ((var0 Int) (var1 Int) (var2 AddrRange) (var3 Int) (var4 Int) (var5 Int) (var6 Int) (var7 Heap)) (not (and (inv_main76 var7 var6 var5 var4 var3 var2 var1 var0) (and (is-O_Int (read var7 (nthAddrRange var2 (+ (* 5 var4) (- 1))))) (not (within var2 (nthAddrRange var2 (+ (* 5 var4) (- 1))))))))))
(assert (forall ((var0 Int) (var1 Int) (var2 AddrRange) (var3 Int) (var4 Int) (var5 Int) (var6 Int) (var7 Heap)) (not (and (inv_main76 var7 var6 var5 var4 var3 var2 var1 var0) (and (is-O_Int (read var7 (nthAddrRange var2 (+ (* 5 var4) (- 1))))) (not (is-O_Int (read var7 (nthAddrRange var2 (+ (* 5 var4) (- 1)))))))))))
(assert (forall ((var0 Int) (var1 Int) (var2 AddrRange) (var3 Int) (var4 Int) (var5 Int) (var6 Int) (var7 Heap)) (not (and (inv_main78 var7 var6 var5 var4 var3 var2 var1 var0) (not (is-O_Int (read var7 (nthAddrRange var2 var4))))))))
(assert (forall ((var0 Int) (var1 Int) (var2 AddrRange) (var3 Int) (var4 Int) (var5 Int) (var6 Int) (var7 Heap)) (not (and (inv_main78 var7 var6 var5 var4 var3 var2 var1 var0) (not (within var2 (nthAddrRange var2 var4)))))))
(assert (forall ((var0 Int) (var1 Int) (var2 AddrRange) (var3 Int) (var4 Int) (var5 Int) (var6 Int) (var7 Heap)) (not (and (inv_main78 var7 var6 var5 var4 var3 var2 var1 var0) (not (is-O_Int (read var7 (nthAddrRange var2 var4))))))))
(assert (forall ((var0 Int) (var1 Int) (var2 AddrRange) (var3 Int) (var4 Int) (var5 Int) (var6 Int) (var7 Heap)) (not (and (inv_main78 var7 var6 var5 var4 var3 var2 var1 var0) (and (is-O_Int (read var7 (nthAddrRange var2 var4))) (not (within var2 (nthAddrRange var2 var4))))))))
(assert (forall ((var0 Int) (var1 Int) (var2 AddrRange) (var3 Int) (var4 Int) (var5 Int) (var6 Int) (var7 Heap)) (not (and (inv_main78 var7 var6 var5 var4 var3 var2 var1 var0) (and (is-O_Int (read var7 (nthAddrRange var2 var4))) (= (getInt (read var7 (nthAddrRange var2 var4))) var1))))))
(check-sat)
